 &control
    calculation='scf'
    restart_mode='from_scratch',
    pseudo_dir='./',
    outdir='./'
    prefix='Al',
 /
 &system    
    ibrav=2, celldm(1)=7.637663, nat=1, ntyp=1,
    ecutwfc =50
    occupations='smearing', smearing='gaussian',
    degauss=0.0003
 /
 &electrons
     diagonalization = 'david'
    mixing_mode='plain'
    mixing_beta = 0.7
    conv_thr =  1.0d-7
 /


ATOMIC_SPECIES
 Al   26.9815385   Al.UPF
 
ATOMIC_POSITIONS
Al  0.00 0.00 0.00 
K_POINTS  {automatic}
21 21 21 0 0 0
