&CONTROL

    calculation   = "vc-relax"

    forc_conv_thr =  1.00000e-04

    max_seconds   =  1.72800e+05

    nstep         = 100

    outdir        = "./"

    prefix        = "espresso"

    pseudo_dir    = "./"

    title         = "CdS-Cubic(Optimize)"

    tprnfor       = .TRUE.

    tstress       = .TRUE.

    wf_collect    = .TRUE.

    wfcdir        = "./"

/



&SYSTEM

    a           =  5.81800e+00

    degauss     =  1.00000e-02

    ecutrho     =  8.00000e+02

    ecutwfc     =  6.80000e+01

    ibrav       = 1

    nat         = 8

    nbnd        = 52

    ntyp        = 2

    occupations = "fixed"

    smearing    = "gaussian"

/



&ELECTRONS

    conv_thr         =  1.00000e-06

    electron_maxstep = 200

    mixing_beta      =  7.00000e-01

    startingpot      = "atomic"

    startingwfc      = "atomic+random"

/



&IONS

    ion_dynamics = "bfgs"

/



&CELL

    cell_dynamics  = "bfgs"

    press_conv_thr =  5.00000e-01

/



K_POINTS {automatic}

 8  8  8  1 1 1



ATOMIC_SPECIES

Cd    112.41100  Cd.pbesol-dn-rrkjus_psl.0.3.1.UPF

S      32.06600  s_pbesol_v1.4.uspp.F.UPF



ATOMIC_POSITIONS (angstrom)

Cd            0.0000000000        0.0000000000        0.0000000000

Cd            0.0000000000        2.9125499942        2.9125499942

Cd            2.9125499942        0.0000000000        2.9125499942

Cd            2.9125499942        2.9125499942        0.0000000000

S             1.4562750599        1.4562750599        1.4562750599

S             1.4562750599        4.3688249285        4.3688249285

S             4.3688249285        1.4562750599        4.3688249285

S             4.3688249285        4.3688249285        1.4562750599



