&CONTROL
    calculation   = "vc-relax"
    forc_conv_thr =  1.00000e-03
    max_seconds   =  1.72800e+05
    nstep         = 1000
    pseudo_dir    = "./"
/

&SYSTEM
    a           =  1.63508e+01
    degauss     =  1.00000e-02
    ecutwfc     =  3.91349e+01
    ibrav       = 1
    nat         = 216
    ntyp        = 2
    occupations = "fixed"
    smearing    = "gaussian"
/

&ELECTRONS
    conv_thr         =  1.00000e-03
    electron_maxstep = 100
    mixing_beta      =  6.00000e-01
    startingpot      = "atomic"
    startingwfc      = "atomic+random"
/

&IONS
    ion_dynamics = "bfgs"
/

&CELL
    cell_dofree    = "all"
    cell_dynamics  = "bfgs"
    press          =  4.00000e-02
    press_conv_thr =  5.00000e-03
/

K_POINTS {gamma}

ATOMIC_SPECIES
Zn     65.38     Zn_pbe_v1.uspp.F.UPF
S      32.06600  s_pbe_v1.4.uspp.F.UPF

ATOMIC_POSITIONS {angstrom}
Zn      0.000000   0.000000   0.000000
Zn      0.000000   2.725135   2.725135
Zn      2.725135   0.000000   2.725135
Zn      2.725135   2.725135   0.000000
S       1.362568   1.362568   4.087703
S       1.362568   4.087703   1.362568
S       4.087703   1.362568   1.362568
S       4.087703   4.087703   4.087703
Zn      0.000000   0.000000   5.450270
Zn      0.000000   2.725135   8.175405
Zn      2.725135   0.000000   8.175405
Zn      2.725135   2.725135   5.450270
S       1.362568   1.362568   9.537972
S       1.362568   4.087703   6.812838
S       4.087703   1.362568   6.812838
S       4.087703   4.087703   9.537972
Zn      0.000000   0.000000  10.900540
Zn      0.000000   2.725135  13.625675
Zn      2.725135   0.000000  13.625675
Zn      2.725135   2.725135  10.900540
S       1.362568   1.362568  14.988242
S       1.362568   4.087703  12.263108
S       4.087703   1.362568  12.263108
S       4.087703   4.087703  14.988242
Zn      0.000000   5.450270   0.000000
Zn      0.000000   8.175405   2.725135
Zn      2.725135   5.450270   2.725135
Zn      2.725135   8.175405   0.000000
S       1.362568   6.812838   4.087703
S       1.362568   9.537972   1.362568
S       4.087703   6.812838   1.362568
S       4.087703   9.537972   4.087703
Zn      0.000000   5.450270   5.450270
Zn      0.000000   8.175405   8.175405
Zn      2.725135   5.450270   8.175405
Zn      2.725135   8.175405   5.450270
S       1.362568   6.812838   9.537972
S       1.362568   9.537972   6.812838
S       4.087703   6.812838   6.812838
S       4.087703   9.537972   9.537972
Zn      0.000000   5.450270  10.900540
Zn      0.000000   8.175405  13.625675
Zn      2.725135   5.450270  13.625675
Zn      2.725135   8.175405  10.900540
S       1.362568   6.812838  14.988242
S       1.362568   9.537972  12.263108
S       4.087703   6.812838  12.263108
S       4.087703   9.537972  14.988242
Zn      0.000000  10.900540   0.000000
Zn      0.000000  13.625675   2.725135
Zn      2.725135  10.900540   2.725135
Zn      2.725135  13.625675   0.000000
S       1.362568  12.263108   4.087703
S       1.362568  14.988242   1.362568
S       4.087703  12.263108   1.362568
S       4.087703  14.988242   4.087703
Zn      0.000000  10.900540   5.450270
Zn      0.000000  13.625675   8.175405
Zn      2.725135  10.900540   8.175405
Zn      2.725135  13.625675   5.450270
S       1.362568  12.263108   9.537972
S       1.362568  14.988242   6.812838
S       4.087703  12.263108   6.812838
S       4.087703  14.988242   9.537972
Zn      0.000000  10.900540  10.900540
Zn      0.000000  13.625675  13.625675
Zn      2.725135  10.900540  13.625675
Zn      2.725135  13.625675  10.900540
S       1.362568  12.263108  14.988242
S       1.362568  14.988242  12.263108
S       4.087703  12.263108  12.263108
S       4.087703  14.988242  14.988242
Zn      5.450270   0.000000   0.000000
Zn      5.450270   2.725135   2.725135
Zn      8.175405   0.000000   2.725135
Zn      8.175405   2.725135   0.000000
S       6.812838   1.362568   4.087703
S       6.812838   4.087703   1.362568
S       9.537972   1.362568   1.362568
S       9.537972   4.087703   4.087703
Zn      5.450270   0.000000   5.450270
Zn      5.450270   2.725135   8.175405
Zn      8.175405   0.000000   8.175405
Zn      8.175405   2.725135   5.450270
S       6.812838   1.362568   9.537972
S       6.812838   4.087703   6.812838
S       9.537972   1.362568   6.812838
S       9.537972   4.087703   9.537972
Zn      5.450270   0.000000  10.900540
Zn      5.450270   2.725135  13.625675
Zn      8.175405   0.000000  13.625675
Zn      8.175405   2.725135  10.900540
S       6.812838   1.362568  14.988242
S       6.812838   4.087703  12.263108
S       9.537972   1.362568  12.263108
S       9.537972   4.087703  14.988242
Zn      5.450270   5.450270   0.000000
Zn      5.450270   8.175405   2.725135
Zn      8.175405   5.450270   2.725135
Zn      8.175405   8.175405   0.000000
S       6.812838   6.812838   4.087703
S       6.812838   9.537972   1.362568
S       9.537972   6.812838   1.362568
S       9.537972   9.537972   4.087703
Zn      5.450270   5.450270   5.450270
Zn      5.450270   8.175405   8.175405
Zn      8.175405   5.450270   8.175405
Zn      8.175405   8.175405   5.450270
S       6.812838   6.812838   9.537972
S       6.812838   9.537972   6.812838
S       9.537972   6.812838   6.812838
S       9.537972   9.537972   9.537972
Zn      5.450270   5.450270  10.900540
Zn      5.450270   8.175405  13.625675
Zn      8.175405   5.450270  13.625675
Zn      8.175405   8.175405  10.900540
S       6.812838   6.812838  14.988242
S       6.812838   9.537972  12.263108
S       9.537972   6.812838  12.263108
S       9.537972   9.537972  14.988242
Zn      5.450270  10.900540   0.000000
Zn      5.450270  13.625675   2.725135
Zn      8.175405  10.900540   2.725135
Zn      8.175405  13.625675   0.000000
S       6.812838  12.263108   4.087703
S       6.812838  14.988242   1.362568
S       9.537972  12.263108   1.362568
S       9.537972  14.988242   4.087703
Zn      5.450270  10.900540   5.450270
Zn      5.450270  13.625675   8.175405
Zn      8.175405  10.900540   8.175405
Zn      8.175405  13.625675   5.450270
S       6.812838  12.263108   9.537972
S       6.812838  14.988242   6.812838
S       9.537972  12.263108   6.812838
S       9.537972  14.988242   9.537972
Zn      5.450270  10.900540  10.900540
Zn      5.450270  13.625675  13.625675
Zn      8.175405  10.900540  13.625675
Zn      8.175405  13.625675  10.900540
S       6.812838  12.263108  14.988242
S       6.812838  14.988242  12.263108
S       9.537972  12.263108  12.263108
S       9.537972  14.988242  14.988242
Zn     10.900540   0.000000   0.000000
Zn     10.900540   2.725135   2.725135
Zn     13.625675   0.000000   2.725135
Zn     13.625675   2.725135   0.000000
S      12.263108   1.362568   4.087703
S      12.263108   4.087703   1.362568
S      14.988242   1.362568   1.362568
S      14.988242   4.087703   4.087703
Zn     10.900540   0.000000   5.450270
Zn     10.900540   2.725135   8.175405
Zn     13.625675   0.000000   8.175405
Zn     13.625675   2.725135   5.450270
S      12.263108   1.362568   9.537972
S      12.263108   4.087703   6.812838
S      14.988242   1.362568   6.812838
S      14.988242   4.087703   9.537972
Zn     10.900540   0.000000  10.900540
Zn     10.900540   2.725135  13.625675
Zn     13.625675   0.000000  13.625675
Zn     13.625675   2.725135  10.900540
S      12.263108   1.362568  14.988242
S      12.263108   4.087703  12.263108
S      14.988242   1.362568  12.263108
S      14.988242   4.087703  14.988242
Zn     10.900540   5.450270   0.000000
Zn     10.900540   8.175405   2.725135
Zn     13.625675   5.450270   2.725135
Zn     13.625675   8.175405   0.000000
S      12.263108   6.812838   4.087703
S      12.263108   9.537972   1.362568
S      14.988242   6.812838   1.362568
S      14.988242   9.537972   4.087703
Zn     10.900540   5.450270   5.450270
Zn     10.900540   8.175405   8.175405
Zn     13.625675   5.450270   8.175405
Zn     13.625675   8.175405   5.450270
S      12.263108   6.812838   9.537972
S      12.263108   9.537972   6.812838
S      14.988242   6.812838   6.812838
S      14.988242   9.537972   9.537972
Zn     10.900540   5.450270  10.900540
Zn     10.900540   8.175405  13.625675
Zn     13.625675   5.450270  13.625675
Zn     13.625675   8.175405  10.900540
S      12.263108   6.812838  14.988242
S      12.263108   9.537972  12.263108
S      14.988242   6.812838  12.263108
S      14.988242   9.537972  14.988242
Zn     10.900540  10.900540   0.000000
Zn     10.900540  13.625675   2.725135
Zn     13.625675  10.900540   2.725135
Zn     13.625675  13.625675   0.000000
S      12.263108  12.263108   4.087703
S      12.263108  14.988242   1.362568
S      14.988242  12.263108   1.362568
S      14.988242  14.988242   4.087703
Zn     10.900540  10.900540   5.450270
Zn     10.900540  13.625675   8.175405
Zn     13.625675  10.900540   8.175405
Zn     13.625675  13.625675   5.450270
S      12.263108  12.263108   9.537972
S      12.263108  14.988242   6.812838
S      14.988242  12.263108   6.812838
S      14.988242  14.988242   9.537972
Zn     10.900540  10.900540  10.900540
Zn     10.900540  13.625675  13.625675
Zn     13.625675  10.900540  13.625675
Zn     13.625675  13.625675  10.900540
S      12.263108  12.263108  14.988242
S      12.263108  14.988242  12.263108
S      14.988242  12.263108  12.263108
S      14.988242  14.988242  14.988242

