&CONTROL
    calculation = "vc-md"
    dt          = 62
    max_seconds = 6.04800e+05
    nstep       = 5000
    pseudo_dir  = "./"
    outdir      = "./outdir_100K_"
    forc_conv_thr = 1.0D-3
    etot_conv_thr = 1.0D-3
/

&SYSTEM
    a           =  1.63508e+01

    degauss     =  1.00000e-02
    
    ecutwfc     =  25
    ibrav       = 0
    nat         = 216
    ntyp        = 2
    occupations = "smearing"
    smearing    = "gaussian"
    nosym       = .TRUE.

/

&ELECTRONS
    conv_thr         =  1.00000e-03
    electron_maxstep = 300
    mixing_beta      =  6.00000e-01
    startingpot      = "atomic"
    startingwfc      = "atomic+random"
/

&IONS
    ion_dynamics    = "beeman"
    ion_temperature = "rescaling"
    tempw           =  1.00000e+02
/

&CELL
    cell_dofree    = "all"
    cell_dynamics  = "pr"
    press          =  4.00000e-02
/  

K_POINTS {gamma}

ATOMIC_SPECIES
Zn     65.38     Zn_pbe_v1.uspp.F.UPF
S      32.06600  s_pbe_v1.4.uspp.F.UPF

CELL_PARAMETERS (alat= 30.89853405)
   0.998023961   0.000000000   0.000000000
   0.000000000   0.998023961   0.000000000
   0.000000000   0.000000000   0.998023961

ATOMIC_POSITIONS (angstrom)
Zn            0.0000000000        0.0000000000        0.0000000000
Zn           -0.0000494759        2.7188149091        2.7188149091
Zn            2.7188149091       -0.0000494759        2.7188149091
Zn            2.7188149091        2.7188149091       -0.0000494759
S             1.3590764476        1.3590764476        4.0780656965
S             1.3590764476        4.0780656965        1.3590764476
S             4.0780656965        1.3590764476        1.3590764476
S             4.0780857748        4.0780857748        4.0780857748
Zn           -0.0000000000        0.0000000000        5.4386038120
Zn            0.0000000000        2.7188236629        8.1592500823
Zn            2.7188236629        0.0000000000        8.1592500823
Zn            2.7187458611        2.7187458611        5.4385195857
S             1.3591310066        1.3591310066        9.5198618085
S             1.3591110720        4.0781381114        6.7986126506
S             4.0781381114        1.3591110720        6.7986126506
S             4.0781656312        4.0781656312        9.5198161789
Zn           -0.0000000000        0.0000000000       10.8798963527
Zn            0.0000494759        2.7188149091       13.5996852556
Zn            2.7188149091        0.0000494759       13.5996852556
Zn            2.7188471021        2.7188471021       10.8799015119
S             1.3590853416        1.3590853416       14.9594148231
S             1.3591393682        4.0781267476       12.2403744151
S             4.0781267476        1.3591393682       12.2403744151
S             4.0781267476        4.0781267476       14.9593607965
Zn            0.0000000000        5.4386038120        0.0000000000
Zn           -0.0000000000        8.1592500823        2.7188236629
Zn            2.7187458611        5.4385195857        2.7187458611
Zn            2.7188236629        8.1592500823        0.0000000000
S             1.3591110720        6.7986126506        4.0781381114
S             1.3591310066        9.5198618085        1.3591310066
S             4.0781381114        6.7986126506        1.3591110720
S             4.0781656312        9.5198161789        4.0781656312
Zn           -0.0000472750        5.4385634374        5.4385634374
Zn            0.0000000000        8.1592500823        8.1592500823
Zn            2.7187892445        5.4385561088        8.1592103571
Zn            2.7187892445        8.1592103571        5.4385561088
S             1.3591362747        6.7986613902        9.5198387744
S             1.3591362747        9.5198387744        6.7986613902
S             4.0781532001        6.7986312868        6.7986312868
S             4.0781532001        9.5198688778        9.5198688778
Zn            0.0000472750        5.4385634374       10.8799367273
Zn           -0.0000000000        8.1592500823       13.5996765018
Zn            2.7188471021        5.4385986528       13.5996530626
Zn            2.7187892445        8.1592898076       10.8799440559
S             1.3591310066        6.7986383562       14.9593691580
S             1.3591110720        9.5198875141       12.2403630513
S             4.0781656312        6.7986839858       12.2403355315
S             4.0781381114        9.5198875141       14.9593890926
Zn            0.0000000000       10.8798963527        0.0000000000
Zn            0.0000494759       13.5996852556        2.7188149091
Zn            2.7188471021       10.8799015119        2.7188471021
Zn            2.7188149091       13.5996852556        0.0000494759
S             1.3591393682       12.2403744151        4.0781267476
S             1.3590853416       14.9594148231        1.3590853416
S             4.0781267476       12.2403744151        1.3591393682
S             4.0781267476       14.9593607965        4.0781267476
Zn            0.0000472750       10.8799367273        5.4385634374
Zn            0.0000000000       13.5996765018        8.1592500823
Zn            2.7187892445       10.8799440559        8.1592898076
Zn            2.7188471021       13.5996530626        5.4385986528
S             1.3591110720       12.2403630513        9.5198875141
S             1.3591310066       14.9593691580        6.7986383562
S             4.0781656312       12.2403355315        6.7986839858
S             4.0781381114       14.9593890926        9.5198875141
Zn           -0.0000472750       10.8799367273       10.8799367273
Zn           -0.0000494759       13.5996852556       13.5996852556
Zn            2.7187458611       10.8799805790       13.5997543036
Zn            2.7187458611       13.5997543036       10.8799805790
S             1.3590764476       12.2404354662       14.9594237170
S             1.3590764476       14.9594237170       12.2404354662
S             4.0780857748       12.2404153879       12.2404153879
S             4.0780656965       14.9594237170       14.9594237170
Zn            5.4386038120       -0.0000000000        0.0000000000
Zn            5.4385195857        2.7187458611        2.7187458611
Zn            8.1592500823        0.0000000000        2.7188236629
Zn            8.1592500823        2.7188236629       -0.0000000000
S             6.7986126506        1.3591110720        4.0781381114
S             6.7986126506        4.0781381114        1.3591110720
S             9.5198618085        1.3591310066        1.3591310066
S             9.5198161789        4.0781656312        4.0781656312
Zn            5.4385634374       -0.0000472750        5.4385634374
Zn            5.4385561088        2.7187892445        8.1592103571
Zn            8.1592500823        0.0000000000        8.1592500823
Zn            8.1592103571        2.7187892445        5.4385561088
S             6.7986613902        1.3591362747        9.5198387744
S             6.7986312868        4.0781532001        6.7986312868
S             9.5198387744        1.3591362747        6.7986613902
S             9.5198688778        4.0781532001        9.5198688778
Zn            5.4385634374        0.0000472750       10.8799367273
Zn            5.4385986528        2.7188471021       13.5996530626
Zn            8.1592500823        0.0000000000       13.5996765018
Zn            8.1592898076        2.7187892445       10.8799440559
S             6.7986383562        1.3591310066       14.9593691580
S             6.7986839858        4.0781656312       12.2403355315
S             9.5198875141        1.3591110720       12.2403630513
S             9.5198875141        4.0781381114       14.9593890926
Zn            5.4385634374        5.4385634374       -0.0000472750
Zn            5.4385561088        8.1592103571        2.7187892445
Zn            8.1592103571        5.4385561088        2.7187892445
Zn            8.1592500823        8.1592500823        0.0000000000
S             6.7986312868        6.7986312868        4.0781532001
S             6.7986613902        9.5198387744        1.3591362747
S             9.5198387744        6.7986613902        1.3591362747
S             9.5198688778        9.5198688778        4.0781532001
Zn            5.4384904910        5.4384904910        5.4384904910
Zn            5.4385188385        8.1592500823        8.1592500823
Zn            8.1592500823        5.4385188385        8.1592500823
Zn            8.1592500823        8.1592500823        5.4385188385
S             6.7986680244        6.7986680244        9.5198321403
S             6.7986680244        9.5198321403        6.7986680244
S             9.5198321403        6.7986680244        6.7986680244
S             9.5198321403        9.5198321403        9.5198321403
Zn            5.4385829015        5.4385829015       10.8799172632
Zn            5.4385561088        8.1592898076       13.5997109201
Zn            8.1592898076        5.4385561088       13.5997109201
Zn            8.1592500823        8.1592500823       10.8799813262
S             6.7986613902        6.7986613902       14.9593638900
S             6.7986312868        9.5198688778       12.2403479626
S             9.5198688778        6.7986312868       12.2403479626
S             9.5198387744        9.5198387744       14.9593638900
Zn            5.4385634374       10.8799367273        0.0000472750
Zn            5.4385986528       13.5996530626        2.7188471021
Zn            8.1592898076       10.8799440559        2.7187892445
Zn            8.1592500823       13.5996765018       -0.0000000000
S             6.7986839858       12.2403355315        4.0781656312
S             6.7986383562       14.9593691580        1.3591310066
S             9.5198875141       12.2403630513        1.3591110720
S             9.5198875141       14.9593890926        4.0781381114
Zn            5.4385829015       10.8799172632        5.4385829015
Zn            5.4385561088       13.5997109201        8.1592898076
Zn            8.1592500823       10.8799813262        8.1592500823
Zn            8.1592898076       13.5997109201        5.4385561088
S             6.7986312868       12.2403479626        9.5198688778
S             6.7986613902       14.9593638900        6.7986613902
S             9.5198688778       12.2403479626        6.7986312868
S             9.5198387744       14.9593638900        9.5198387744
Zn            5.4384904910       10.8800096737       10.8800096737
Zn            5.4385195857       13.5997543036       13.5997543036
Zn            8.1592103571       10.8799440559       13.5997109201
Zn            8.1592103571       13.5997109201       10.8799440559
S             6.7986126506       12.2403630513       14.9593890926
S             6.7986126506       14.9593890926       12.2403630513
S             9.5198161789       12.2403355315       12.2403355315
S             9.5198618085       14.9593691580       14.9593691580
Zn           10.8798963527       -0.0000000000        0.0000000000
Zn           10.8799015119        2.7188471021        2.7188471021
Zn           13.5996852556        0.0000494759        2.7188149091
Zn           13.5996852556        2.7188149091        0.0000494759
S            12.2403744151        1.3591393682        4.0781267476
S            12.2403744151        4.0781267476        1.3591393682
S            14.9594148231        1.3590853416        1.3590853416
S            14.9593607965        4.0781267476        4.0781267476
Zn           10.8799367273        0.0000472750        5.4385634374
Zn           10.8799440559        2.7187892445        8.1592898076
Zn           13.5996765018        0.0000000000        8.1592500823
Zn           13.5996530626        2.7188471021        5.4385986528
S            12.2403630513        1.3591110720        9.5198875141
S            12.2403355315        4.0781656312        6.7986839858
S            14.9593691580        1.3591310066        6.7986383562
S            14.9593890926        4.0781381114        9.5198875141
Zn           10.8799367273       -0.0000472750       10.8799367273
Zn           10.8799805790        2.7187458611       13.5997543036
Zn           13.5996852556       -0.0000494759       13.5996852556
Zn           13.5997543036        2.7187458611       10.8799805790
S            12.2404354662        1.3590764476       14.9594237170
S            12.2404153879        4.0780857748       12.2404153879
S            14.9594237170        1.3590764476       12.2404354662
S            14.9594237170        4.0780656965       14.9594237170
Zn           10.8799367273        5.4385634374        0.0000472750
Zn           10.8799440559        8.1592898076        2.7187892445
Zn           13.5996530626        5.4385986528        2.7188471021
Zn           13.5996765018        8.1592500823        0.0000000000
S            12.2403355315        6.7986839858        4.0781656312
S            12.2403630513        9.5198875141        1.3591110720
S            14.9593691580        6.7986383562        1.3591310066
S            14.9593890926        9.5198875141        4.0781381114
Zn           10.8799172632        5.4385829015        5.4385829015
Zn           10.8799813262        8.1592500823        8.1592500823
Zn           13.5997109201        5.4385561088        8.1592898076
Zn           13.5997109201        8.1592898076        5.4385561088
S            12.2403479626        6.7986312868        9.5198688778
S            12.2403479626        9.5198688778        6.7986312868
S            14.9593638900        6.7986613902        6.7986613902
S            14.9593638900        9.5198387744        9.5198387744
Zn           10.8800096737        5.4384904910       10.8800096737
Zn           10.8799440559        8.1592103571       13.5997109201
Zn           13.5997543036        5.4385195857       13.5997543036
Zn           13.5997109201        8.1592103571       10.8799440559
S            12.2403630513        6.7986126506       14.9593890926
S            12.2403355315        9.5198161789       12.2403355315
S            14.9593890926        6.7986126506       12.2403630513
S            14.9593691580        9.5198618085       14.9593691580
Zn           10.8799367273       10.8799367273       -0.0000472750
Zn           10.8799805790       13.5997543036        2.7187458611
Zn           13.5997543036       10.8799805790        2.7187458611
Zn           13.5996852556       13.5996852556       -0.0000494759
S            12.2404153879       12.2404153879        4.0780857748
S            12.2404354662       14.9594237170        1.3590764476
S            14.9594237170       12.2404354662        1.3590764476
S            14.9594237170       14.9594237170        4.0780656965
Zn           10.8800096737       10.8800096737        5.4384904910
Zn           10.8799440559       13.5997109201        8.1592103571
Zn           13.5997109201       10.8799440559        8.1592103571
Zn           13.5997543036       13.5997543036        5.4385195857
S            12.2403355315       12.2403355315        9.5198161789
S            12.2403630513       14.9593890926        6.7986126506
S            14.9593890926       12.2403630513        6.7986126506
S            14.9593691580       14.9593691580        9.5198618085
Zn           10.8799172632       10.8799172632       10.8799172632
Zn           10.8799015119       13.5996530626       13.5996530626
Zn           13.5996530626       10.8799015119       13.5996530626
Zn           13.5996530626       13.5996530626       10.8799015119
S            12.2403744151       12.2403744151       14.9593607965
S            12.2403744151       14.9593607965       12.2403744151
S            14.9593607965       12.2403744151       12.2403744151
S            14.9594148231       14.9594148231       14.9594148231

