&CONTROL
    calculation = "vc-md"
    dt          = 2.06707e+01
    max_seconds = 6.04800e+05
    nstep       = 1000
    pseudo_dir  = "./"
    outdir      = "./outdir_4gpa_"
/

&SYSTEM
    a           =  5.821e+00
    degauss     =  1.00000e-02
    ecutrho     =  6.37577e+02
    ecutwfc     =  3.91349e+01
    ibrav       = 2
    nat         = 2
    nosym       = .TRUE.
    ntyp        = 2
    occupations = "smearing"
    smearing    = "gaussian"
/

&ELECTRONS
    conv_thr         =  1.00000e-06
    electron_maxstep = 200
    mixing_beta      =  7.00000e-01
    startingpot      = "atomic"
    startingwfc      = "atomic+random"
/

&IONS
    ion_dynamics    = "beeman"
    ion_temperature = "not_controlled"
/

&CELL
    cell_dofree   = "all"
    cell_dynamics = "pr"
    press         =  40
/

K_POINTS {automatic}
 4  4  4  0 0 0

ATOMIC_SPECIES
Cd    112.41100  Cd.pbesol-dn-rrkjus_psl.0.3.1.UPF
S      32.06600  s_pbesol_v1.4.uspp.F.UPF

ATOMIC_POSITIONS {alat}
Cd      0.000000   0.000000   0.000000
S       0.250000   0.250000   0.25000


