 &control
    calculation='bands'
    pseudo_dir = './',
    outdir='./',
    prefix='Al'
 /
 &system
    ibrav=  2, celldm(1) =7.637663,, nat=1, ntyp= 1,
    ecutwfc =50, nbnd=8
 /
 &electrons
    conv_thr =  1.0d-8
    mixing_beta = 0.7
    diagonalization='david'
 /
ATOMIC_SPECIES
 Al  26.9815385  Al.UPF
ATOMIC_POSITIONS
 Al 0.00 0.00 0.00
K_POINTS {crystal_b}
6
  0.00  0.00  0.00  30 !G
  0.50  0.50  0.00  30 !X
  0.75  0.50  0.25  30 !W
  0.50  0.00  0.00  30 !L
  0.00  0.00  0.00  30 !G
  0.50  0.50  0.00  30 !X
