&BANDS
  prefix="Al"
  outdir="./"
  filband="Bandx.dat"
/
