 &control
    calculation='scf'
    restart_mode='from_scratch',
    prefix='silicon',
    verbosity='low',
    pseudo_dir='./',
    outdir='./'
 /
 &system    
    ibrav=2, celldm(1)=10.263290817, nat=2, ntyp=1,
    ecutwfc=30
 /
 &electrons
    diagonalization = 'david'
    mixing_mode='plain'
    mixing_beta = 0.7
    conv_thr =  1.0d-7
 /

ATOMIC_SPECIES
 Si   28.0855   Si.pz-vbc.UPF
 
ATOMIC_POSITIONS
 Si  0.00 0.00 0.00 
 Si  0.25 0.25 0.25 

K_POINTS  {automatic}
8 8 8 0 0 0
