 &control
    calculation='nscf'
    pseudo_dir='./',
    outdir='./'
    prefix='Ge',
 /
 &system    
    ibrav=2, celldm(1)=10.63290817, nat=2, ntyp=1,
    ecutwfc =30
    occupations = 'tetrahedra'
 /
 &electrons
    conv_thr =  1.0d-8
    mixing_beta = 0.7
    diagonalization = 'david'
 /

ATOMIC_SPECIES
 Ge   72.59  ge_pbe_v1.4.uspp.F.UPF 
ATOMIC_POSITIONS
 Ge  0.00 0.00 0.00 
 Ge  0.25 0.25 0.25 
K_POINTS  {automatic}
32 32 32 0 0 0

