   &control
    calculation = 'relax',
    restart_mode='from_scratch',
    prefix='knbo',
    pseudo_dir = './',
    outdir='./outdir'
    
 /
 &system
    ibrav= 8, 
    a =  7.83000      
    b = 33.20999      
    c =  6.46000      
    nat=108, ntyp=3,
    ecutwfc=30,
    nosym = .true.
 /
 &electrons
    mixing_beta = 0.4
    conv_thr =  1.0d-4
 /
 &ions
    ion_dynamics="bfgs",
 /
 



K_POINTS {automatic}
 2  1  2  0 0 0

ATOMIC_SPECIES 
Nb   92.90638  Nb.pbe-spn-kjpaw_psl.0.3.0.UPF
K    39.09830  K.pbe-spn-kjpaw_psl.1.0.0.UPF
O    15.99940  O.pbe-n-kjpaw_psl.0.1.UPF  


ATOMIC_POSITIONS {angstrom}
Nb    2.006263  14.292179   3.027252
Nb    5.921263   2.726458   0.421146
Nb    5.921263  19.331463   6.257252
Nb    2.006263  30.897174   3.651146
Nb    2.067885   2.728119   0.394667
Nb    5.982885  14.290519   3.053732
Nb    5.982885  30.895514   3.624667
Nb    2.067885  19.333124   6.283732
Nb    1.997564  12.667879   0.146732
Nb    5.912564   4.350759   3.301667
Nb    5.912564  20.955764   3.376732
Nb    1.997564  29.272874   0.071667
Nb    2.121443   4.285667   3.226220
Nb    6.036443  12.732970   0.222178
Nb    6.036443  29.337965   6.456220
Nb    2.121443  20.890672   3.452178
Nb    4.055460  11.677889   2.608961
Nb    0.140460   5.340749   0.839438
Nb    0.140460  21.945754   5.838961
Nb    4.055460  28.282884   4.069438
Nb    4.053111  10.166834   6.118679
Nb    0.138111   6.851803   3.789720
Nb    0.138111  23.456808   2.888679
Nb    4.053111  26.771829   0.559720
K     3.951376  15.846075   5.930389
K     0.036376   1.172563   3.978009
K     0.036376  17.777568   2.700389
K     3.951376  32.451070   0.748009
K     0.056030  15.740135   5.892941
K     3.971030   1.278503   4.015458
K     3.971030  17.883508   2.662941
K     0.056030  32.345130   0.785458
K     0.048184  11.230218   3.881297
K     3.963184   5.788419   6.027102
K     3.963184  22.393424   0.651297
K     0.048184  27.835213   2.797102
K     0.081916   9.221014   0.398717
K     3.996916   7.797624   3.049681
K     3.996916  24.402629   3.628717
K     0.081916  25.826009   6.279681
O     2.344433  15.879285   3.522093
O     6.259433   1.139353   6.386306
O     6.259433  17.744358   0.292093
O     2.344433  32.484280   3.156306
O     5.813781  16.078379   3.524524
O     1.898781   0.940259   6.383875
O     1.898781  17.545264   0.294524
O     5.813781  32.683374   3.153875
O     2.109103  13.310492   4.939018
O     6.024103   3.708146   4.969380
O     6.024103  20.313151   1.709018
O     2.109103  29.915487   1.739380
O     6.069564  13.613367   5.059232
O     2.154564   3.405270   4.849166
O     2.154564  20.010275   1.829232
O     6.069564  30.218362   1.619166
O     2.185038  10.770592   6.059822
O     6.100038   6.248046   3.848577
O     6.100038  22.853051   2.829822
O     2.185038  27.375587   0.618577
O     6.033021  10.778131   6.311374
O     2.118021   6.240507   3.597024
O     2.118021  22.845512   3.081374
O     6.033021  27.383126   0.367024
O     2.048083  14.433322   1.109569
O     5.963083   2.585316   2.338830
O     5.963083  19.190321   4.339569
O     2.048083  31.038317   5.568830
O     5.993158  14.826362   1.179689
O     2.078158   2.192276   2.268709
O     2.078158  18.797281   4.409689
O     5.993158  31.431357   5.498709
O     2.154524  12.161759   2.317570
O     6.069524   4.856879   1.130829
O     6.069524  21.461884   5.547570
O     2.154524  28.766754   4.360829
O     5.831790  11.917167   2.195695
O     1.916790   5.101471   1.252703
O     1.916790  21.706476   5.425695
O     5.831790  28.522162   4.482703
O     4.041734  12.526736   0.504816
O     0.126734   4.491901   2.943582
O     0.126734  21.096906   3.734816
O     4.041734  29.131731   6.173582
O     0.101812  12.391904   0.312450
O     4.016812   4.626734   3.135948
O     4.016812  21.231739   3.542450
O     0.101812  28.996899   6.365948
O     3.849978   9.924435   1.614799
O     7.764978   7.094203   1.833599
O     7.764978  23.699208   4.844799
O     3.849978  26.529430   5.063599
O     0.048844  14.078307   3.227803
O     3.963844   2.940331   0.220596
O     3.963844  19.545336   6.457803
O     0.048844  30.683302   3.450596
O     3.882331  13.696060   3.165076
O     7.797331   3.322578   0.283322
O     7.797331  19.927583   6.395076
O     3.882331  30.301055   3.513322
O     4.166263   8.379795   5.763405
O     0.251263   8.638843   4.144994
O     0.251263  25.243838   2.533405
O     4.166263  24.984800   0.914994
O     4.185352  10.959225   4.227062
O     0.270352   6.059413   5.681337
O     0.270352  22.664418   0.997062
O     4.185352  27.564220   2.451337
