&BANDS
  prefix="sil"
  outdir="./"
  filband="Bandx.dat"
/
