 &control
    calculation='scf'
    restart_mode='from_scratch',
    pseudo_dir='./',
    outdir='./'
    prefix='sil',
 /
 &system    
    ibrav=2, celldm(1)=10.26, nat=2, ntyp=1,
    ecutwfc =50
 /
 &electrons
    conv_thr =  1.0d-8
    mixing_beta = 0.7
    diagonalization = 'david'
 /

ATOMIC_SPECIES
 Si   28.0855   Si.pz-vbc.UPF 
ATOMIC_POSITIONS
 Si  0.00 0.00 0.00
 Si  0.25 0.25 0.25
K_POINTS  {automatic}
6 6 6 0 0 0
