BEGIN
BEGIN_PATH_INPUT
&PATH
  restart_mode      = 'from_scratch'
  string_method     = 'neb',
  nstep_path        = 150,
  ds                = 1.D0,
  opt_scheme        = "broyden",
  num_of_images     = 8,
  CI_scheme         = 'no-CI',
  path_thr          = 0.1D0,
/
END_PATH_INPUT
BEGIN_ENGINE_INPUT
&CONTROL
  prefix= "knbo"
  pseudo_dir = './',
  outdir='./outdir_n'
  etot_conv_thr=0.001
  forc_conv_thr=0.001
  !disk_io='none' ! for disk storage no scf 
/
&system
     ibrav= 8,
      a =  7.83000
    b = 33.20999
    c =  6.46000
    nat=107, 
      ntyp=3,
    ecutwfc=30,
   nosym = .true.
   occupations='smearing'
   smearing='gaussian'
   degauss=0.02
   
   
/
&ELECTRONS
  mixing_beta = 0.35
  conv_thr =  1.0d-4
  electron_maxstep=120
/
&IONS
/
ATOMIC_SPECIES
Nb   92.90638  Nb.pbe-spn-kjpaw_psl.0.3.0.UPF
K    39.09830  K.pbe-spn-kjpaw_psl.1.0.0.UPF
O    15.99940  O.pbe-n-kjpaw_psl.0.1.UPF
K_POINTS automatic
2  1  2 0 0 0
BEGIN_POSITIONS
FIRST_IMAGE
ATOMIC_POSITIONS {angstrom}
Nb	2.03470547	14.32308057	3.062537188
Nb	5.953758089	2.692318247	0.404888825
Nb	5.963984327	19.30284836	6.317640843
Nb	2.043302563	30.92943455	3.613299862
Nb	2.069371145	2.684092072	0.400684312
Nb	5.981514383	14.33150253	3.072531178
Nb	5.983832981	30.93697616	3.611593318
Nb	2.060134641	19.28830392	6.320188391
Nb	2.028614751	12.66372166	0.184084014
Nb	5.938029419	4.360797735	3.271696347
Nb	5.936029478	20.94222475	3.426052041
Nb	2.026052774	29.26187672	0.022750534
Nb	2.128928839	4.344629723	3.262258538
Nb	6.043926125	12.67536468	0.197210774
Nb	6.046173897	29.27568257	6.47667699
Nb	2.147584096	20.91492703	3.434577134
Nb	4.028135737	11.65282317	2.61276634
Nb	0.113464126	5.347175628	0.834441222
Nb	0.12376515	21.97953779	5.836644907
Nb	4.031236937	28.26710788	4.061308659
Nb	4.036749735	10.05558194	6.128484213
Nb	0.123299151	6.946093664	3.783496305
Nb	0.13299767	23.55440708	2.892673961
Nb	4.04140032	26.67427758	0.554372458
K	4.029458297	16.13441804	6.029160886
K	0.112115381	1.197954616	3.934259414
K	0.098665008	17.76802435	2.751410091
K	4.025729735	32.42290859	0.696199603
K	0.105482319	15.7265554	5.902323051
K	4.02418173	1.28168844	3.943804296
K	0.112193919	32.33175734	0.704109492
K	0.117220062	11.3031595	3.869133033
K	4.031574633	5.731597526	6.069968388
K	4.035454872	22.3136101	0.655551685
K	0.117211223	27.88050436	2.841654888
K	0.113366856	9.206043021	0.373064662
K	4.02742799	7.84563327	3.107238668
K	4.03402798	24.38324216	3.624934077
K	0.115956844	25.77154039	6.351351516
O	2.132526951	15.9810834	3.675496842
O	6.152684618	1.004420677	6.298519432
O	6.267511377	17.62312341	0.349864467
O	2.247487409	32.61811443	3.051005676
O	5.876408209	15.9881809	3.689190702
O	1.862361045	0.998374294	6.291071885
O	1.74080563	17.61145937	0.354821859
O	5.769397216	32.62251564	3.045073117
O	2.004070473	13.3805249	4.917488085
O	5.916186937	3.599901042	4.982365433
O	5.92040388	20.2545231	1.683540167
O	2.005820105	30.03376444	1.732392903
O	6.021994196	13.39472075	4.930446874
O	2.113656765	3.583341325	4.971486324
O	2.117531438	20.21708523	1.69871301
O	6.030759525	30.04576303	1.725396357
O	2.166137536	10.71094891	6.184974034
O	6.07423969	6.287846944	3.723451729
O	6.093880219	22.90176656	2.954216719
O	2.16392343	27.33608308	0.48661599
O	5.896119661	10.72314542	6.184680613
O	1.988493466	6.271841281	3.729923466
O	1.987405398	22.87366224	2.941795755
O	5.905889887	27.35198489	0.498076839
O	2.080050644	14.44355936	1.093037778
O	6.002529279	2.557005227	2.356035671
O	6.087556431	19.20774286	4.355770667
O	2.094801283	31.06490486	5.567121809
O	5.951112293	14.45560813	1.096692816
O	2.026588143	2.541634785	2.355961466
O	1.947733771	19.18081853	4.353604094
O	5.943203672	31.07766673	5.569106781
O	2.147931348	12.05587836	2.252566261
O	6.062625828	4.918599793	1.181466113
O	6.064189346	21.5809762	5.492270966
O	2.147800971	28.70029756	4.402040988
O	5.907736561	12.06805797	2.26132082
O	1.993543452	4.90452765	1.175192638
O	2.011345081	21.54457691	5.504236586
O	5.913962727	28.71165503	4.397106154
O	4.02839724	12.45585684	0.444209932
O	0.112464835	4.525664528	3.000650601
O	0.121773808	21.18244205	3.676108292
O	4.030784641	29.09692211	6.217346642
O	0.115865267	12.42729094	0.336329173
O	4.029395571	4.552026656	3.082558128
O	4.036884137	21.20689138	3.596481579
O	0.117447413	29.0782204	6.305596392
O	4.043771392	9.970880548	1.642702522
O	7.960414064	7.019505172	1.808170082
O	7.975889577	23.66393178	4.866192249
O	4.048602557	26.59671032	5.035390381
O	0.093531234	14.07940764	3.10519308
O	4.011226249	2.85233909	0.325031805
O	4.013490761	19.38230967	6.314541132
O	0.099195753	30.78136227	3.547033505
O	4.013726114	13.72796531	3.088115828
O	7.931225843	3.275625444	0.345175881
O	7.933959538	19.94158875	6.355176934
O	4.019012473	30.33822047	3.567506576
O	4.046070974	8.309263236	5.750564796
O	0.136040628	8.681974317	4.158408181
O	0.146974052	25.30543023	2.522013883
O	4.057938782	24.94037268	0.936475361
O	4.028843212	10.82162193	4.249937875
O	0.111565554	6.168479117	5.655538613
O	0.122527374	22.8241039	1.006943065
O	4.028650416	27.45541684	2.420024526

LAST_IMAGE
ATOMIC_POSITIONS {angstrom}
Nb            2.0377029553       14.3378712461        3.0610372386
Nb            5.9501024960        2.6911869226        0.4065392599
Nb            5.9509318000       19.2713430980        6.3007284398
Nb            2.0355193936       30.9304225441        3.6251575912
Nb            2.0557397539        2.6654373628        0.3498780892
Nb            5.9752724198       14.3719061579        3.1297796307
Nb            5.9704469561       30.9672548132        3.5857202188
Nb            2.0536010363       19.2362672558        6.3353828589
Nb            2.0229383608       12.6944606495        0.1723478194
Nb            5.9417816938        4.3687958337        3.2789385271
Nb            5.9410726774       20.9567571088        3.4154414652
Nb            2.0251367888       29.2585052655        0.0376939266
Nb            2.1298705422        4.3255742533        3.2127171550
Nb            6.0597250309       12.7311676384        0.2427122798
Nb            6.0422936788       29.2999513374        6.4492979645
Nb            2.1252108822       20.9280203381        3.4597714349
Nb            4.0287028459       11.6639681490        2.6008714493
Nb            0.1115597895        5.3570342179        0.8474824177
Nb            0.1135745761       21.9651995508        5.8350497632
Nb            4.0310283531       28.2680656439        4.0758686073
Nb            4.0633524240       10.0775007730        6.1142147029
Nb            0.1485214414        6.9548006932        3.8013984895
Nb            0.1426637491       23.5645744037        2.8803493553
Nb            4.0614799708       26.6701890932        0.5730335691
K             3.9897302267       15.8381624187        5.9568565643
K             0.0766169825        1.2018885711        3.9588428959
K             0.0894038780       17.6018099862        2.7482012922
K             3.9889385120       32.4265558609        0.7250476743
K             4.0014042971        1.2728087129        3.9740087345
K             4.0027590150       17.8795258894        2.6662548488
K             0.0876995252       32.3553229128        0.7417764565
K             0.0900777043       11.3069695164        3.8786896011
K             4.0060330186        5.7553524940        6.0374657425
K             4.0064250595       22.3178056603        0.6367414780
K             0.0908180137       27.8840597495        2.8069414461
K             0.1446013963        9.2341011761        0.3844711264
K             4.0596676704        7.8493462167        3.0874872810
K             4.0586091191       24.4076330430        3.6126105775
K             0.1448075112       25.7955111396        6.3093096779
O             2.3130109145       16.0245425985        3.5588468440
O             6.1690685749        1.0033994935        6.2984553290
O             6.0729399834       17.6101392724        0.4428332308
O             2.2567788880       32.6180068828        3.0613487617
O             5.7163136167       16.0693229482        3.5933754212
O             1.8700842997        0.9654472340        6.2691885580
O             1.9509240532       17.5699347286        0.4685702914
O             5.7850414585       32.6638290800        3.0350866720
O             2.0409907694       13.3899624912        4.8966700507
O             5.9321422383        3.5975823695        4.9910097286
O             5.9331007708       20.2145786614        1.6892328655
O             2.0171505969       30.0331558200        1.7514534083
O             5.9435429139       13.4525072226        4.9722138953
O             2.0558760339        3.5365528188        4.9230609324
O             2.0538614951       20.1626213783        1.7427782352
O             5.9706693455       30.0902354679        1.6964260012
O             2.1921146215       10.7254721193        6.1649114060
O             6.0977915854        6.3033584456        3.7503160952
O             6.1012148078       22.9109825678        2.9277435165
O             2.1829972485       27.3231279522        0.5211265544
O             5.9092699299       10.7514215058        6.2186697978
O             2.0009327574        6.2736499047        3.6961652151
O             1.9941156655       22.8910527139        2.9785602679
O             5.9143494859       27.3523002343        0.4655309771
O             2.1393651493       14.4345964162        1.0940477428
O             5.9843145204        2.5678196785        2.3704144556
O             5.9735342014       19.1774511627        4.3189582151
O             2.0683399076       31.0575604993        5.5924451669
O             5.8835864651       14.4667621694        1.1577183325
O             2.0277893663        2.5265032273        2.3160148570
O             2.0434046878       19.1408476249        4.3598691195
O             5.9429526753       31.1021702771        5.5493764695
O             2.1371615549       12.0796804466        2.2680195264
O             6.0501974913        4.9195338397        1.1716722217
O             6.0555157884       21.5563552309        5.4892447947
O             2.1361017224       28.7034157833        4.3978121638
O             5.9233902655       12.0839255583        2.2860264248
O             2.0058930398        4.9027355572        1.1507679250
O             1.9994084275       21.5408222802        5.5042082550
O             5.9222364374       28.7226859507        4.3832855615
O             4.0339016323       12.4538184725        0.4592048907
O             0.1143966097        4.5432273672        2.9839800818
O             0.1139917635       21.1623884125        3.6868285466
O             4.0293053276       29.0854542191        6.2110219070
O             0.1231785431       12.4176857180        0.3189356801
O             4.0333880181        4.5625023913        3.1253462265
O             4.0310536345       21.1872763845        3.5475410928
O             0.1165408086       29.0610554050        6.3515469824
O             4.0364292185        9.9810887949        1.6378395083
O             7.9582117877        7.0283192136        1.8112779951
O             7.9580422645       23.6431866850        4.8656756946
O             4.0438272733       26.5978189801        5.0438017750
O             0.0946418773       14.2026269513        3.1139623072
O             4.0072019558        2.8219759527        0.3073669131
O             4.0044485683       19.4588409754        6.3690247910
O             0.0909662944       30.8076485340        3.5355753012
O             4.0225607603       13.7284136940        3.0761086118
O             7.9335895121        3.2677575148        0.3799075827
O             7.9337231484       19.8741256450        6.2961439116
O             4.0203449021       30.3528839043        3.6061596372
O             4.0982501196        8.3259508824        5.7340851115
O             0.1808202097        8.6950583372        4.1802065136
O             0.1771358812       25.3094883147        2.4898966785
O             4.0960285040       24.9302736680        0.9597240433
O             4.0618471616       10.8202340390        4.2367140916
O             0.1464914359        6.1783166118        5.6648514645
O             0.1420118379       22.8010092175        1.0112307208
O             4.0605096498       27.4387214030        2.4370480014

END_POSITIONS
END_ENGINE_INPUT
END

